# pbepbe/6-31G TDA=(nstates=4)

dasda

0 1
C   3.5400032   1.4197788   0.0000019
H   2.5956117   1.4198124   0.5522344
H   4.4843941   1.4197465   0.5522355
N   3.5400277   2.0439152  -1.3562807
N   3.5399846   0.7959152  -1.3562818

