# pbepbe/3-21G TDA=(nstates=5) Symmetry=none

nada

0 1
 5             0.000000    0.000000   -0.235570
 H             0.000000    0.000000    1.035570

