#p pbepbe/6-31G TDA=(nstates=7)

nada

-1 2
H     0.000000    0.000000    0.401187
H     0.000000    0.000000   -0.363523

