# pbepbe/6-31G TDA=(nstates=4)

nada

-1 1
Li     0.000000    0.000000    0.000000

